p tw 150 378
0 1
0 2
0 80
0 97
1 2
1 61
1 79
1 137
1 148
2 59
2 69
2 70
2 71
3 4
3 5
3 22
3 41
3 54
3 86
4 5
4 24
4 25
5 19
5 23
5 30
5 131
6 7
6 8
6 10
6 52
6 53
7 8
7 9
8 14
8 74
9 52
10 11
10 12
10 13
10 14
10 52
10 53
11 12
11 13
11 14
11 72
12 13
12 14
12 73
12 136
13 14
13 81
13 82
13 83
14 74
15 16
15 17
15 18
15 19
15 31
15 33
15 81
15 136
16 17
16 18
16 19
16 32
16 82
17 18
17 19
17 68
18 19
18 44
18 67
18 89
18 106
19 23
19 30
19 131
20 21
20 22
20 23
20 43
20 45
21 22
21 23
21 42
21 55
22 23
22 41
22 54
22 86
23 30
23 131
24 25
24 30
24 31
25 131
26 27
26 28
26 29
26 48
26 49
26 50
26 51
27 28
27 29
27 57
27 58
28 29
28 129
28 138
29 96
30 31
30 131
31 33
31 81
31 136
32 33
32 82
33 81
33 136
34 35
34 106
34 107
34 108
35 68
35 89
36 37
36 40
36 41
36 42
37 86
37 102
38 39
38 75
38 76
38 77
38 78
39 112
39 113
40 41
40 42
40 102
41 42
41 54
41 86
42 55
43 44
43 45
44 67
44 89
44 106
45 54
45 55
45 56
46 47
46 98
46 99
46 100
47 142
47 143
47 144
48 49
48 50
48 51
48 79
48 80
49 50
49 51
49 84
49 90
50 51
50 57
50 137
50 138
51 58
51 85
51 140
52 53
53 122
54 55
54 56
54 86
55 56
56 109
57 58
57 137
57 138
58 85
58 140
59 60
59 61
59 62
59 63
59 69
59 70
59 71
60 61
60 62
60 63
60 132
60 133
61 62
61 63
61 79
61 137
61 148
62 63
62 110
63 127
63 130
63 141
63 142
64 65
64 77
64 88
64 123
65 111
66 67
66 93
66 100
66 139
66 143
66 145
67 89
67 106
68 89
69 70
69 71
69 75
69 112
70 71
70 78
70 132
70 149
71 133
72 73
72 74
73 74
73 136
75 76
75 77
75 78
75 112
76 77
76 78
76 113
76 121
77 78
77 88
77 123
78 132
78 149
79 80
79 137
79 148
80 97
81 82
81 83
81 136
82 83
83 98
84 85
84 90
85 140
86 102
87 88
87 105
87 116
87 124
88 123
89 106
90 140
91 92
91 103
91 109
91 117
92 104
93 94
93 95
93 96
93 100
93 139
93 143
93 145
94 95
94 96
94 101
95 96
95 134
95 135
97 148
98 99
98 100
99 100
99 114
99 115
100 139
100 143
100 145
101 134
103 104
103 105
103 109
103 117
104 105
105 116
105 124
106 107
106 108
107 108
107 147
108 116
108 117
108 118
108 119
108 120
109 117
110 127
110 128
111 121
111 123
112 113
113 121
114 115
114 122
114 135
114 139
115 145
116 117
116 118
116 119
116 120
116 124
117 118
117 119
117 120
118 119
118 120
118 125
119 120
119 126
119 146
119 147
120 141
121 123
122 135
122 139
124 125
124 126
125 126
126 146
126 147
127 128
127 130
127 141
127 142
128 144
129 130
129 138
130 141
130 142
132 133
132 149
134 135
135 139
137 138
137 148
139 143
139 145
141 142
142 143
142 144
143 144
143 145
146 147
146 149
